# Objective value = 117
WA1n 0
WA1p 0
WA2n 1
WA2p 0
WB1n 0
WB1p 0
WB2n 1
WB2p 0
WC1n 0
WC1p 0
WC2n 0
WC2p 1
WD1n 0
WD1p 0
WD2n 0
WD2p 1
WE1n 2
WE1p 0
WF1n 2
WF1p 0
WG1n 0
WG1p 4
WG2n 0
WG2p 1
WH1n 6
WH1p 0
WH2n 1
WH2p 0
WI1n 11
WI1p 0
WJ1n 0
WJ1p 11
WK1n 0
WK1p 11
WL1n 0
WL1p 39
WL2n 0
WL2p 1
WT1n 0
WT1p 17
5 7
a 0
b 0
c 0
d 0
e 0
f 1
g 0
h 1
i 0
j 0
k 1
l 1
m 0
n 0
o 0
p 1
q 1
r 1
s 1
t 1
